(set-option :print-success true)
(set-option :produce-models true)
(declare-const t1_disc Int)
(assert (or (= t1_disc 1) (= t1_disc 2) (= t1_disc 3)))
(declare-const t1_bitvector_width Int)
(declare-const t1_bitvector_width_some Bool)
(assert (=> (distinct t1_disc 1) (not t1_bitvector_width_some)))
(assert (=> (not t1_bitvector_width_some) (= t1_bitvector_width 0)))
(declare-const t1_integer_value Int)
(declare-const t1_integer_value_some Bool)
(assert (=> (distinct t1_disc 2) (not t1_integer_value_some)))
(assert (=> (not t1_integer_value_some) (= t1_integer_value 0)))
(assert (= t1_disc 1))
(assert t1_bitvector_width_some)
(assert (= t1_bitvector_width 32))
(declare-const t2_disc Int)
(assert (or (= t2_disc 1) (= t2_disc 2) (= t2_disc 3)))
(declare-const t2_bitvector_width Int)
(declare-const t2_bitvector_width_some Bool)
(assert (=> (distinct t2_disc 1) (not t2_bitvector_width_some)))
(assert (=> (not t2_bitvector_width_some) (= t2_bitvector_width 0)))
(declare-const t2_integer_value Int)
(declare-const t2_integer_value_some Bool)
(assert (=> (distinct t2_disc 2) (not t2_integer_value_some)))
(assert (=> (not t2_integer_value_some) (= t2_integer_value 0)))
(assert (= t2_disc 1))
(assert t2_bitvector_width_some)
(assert (= t2_bitvector_width 64))
(declare-const t7_disc Int)
(assert (or (= t7_disc 1) (= t7_disc 2) (= t7_disc 3)))
(declare-const t7_bitvector_width Int)
(declare-const t7_bitvector_width_some Bool)
(assert (=> (distinct t7_disc 1) (not t7_bitvector_width_some)))
(assert (=> (not t7_bitvector_width_some) (= t7_bitvector_width 0)))
(declare-const t7_integer_value Int)
(declare-const t7_integer_value_some Bool)
(assert (=> (distinct t7_disc 2) (not t7_integer_value_some)))
(assert (=> (not t7_integer_value_some) (= t7_integer_value 0)))
(assert (= t7_disc 3))
(declare-const t3_disc Int)
(assert (or (= t3_disc 1) (= t3_disc 2) (= t3_disc 3)))
(declare-const t3_bitvector_width Int)
(declare-const t3_bitvector_width_some Bool)
(assert (=> (distinct t3_disc 1) (not t3_bitvector_width_some)))
(assert (=> (not t3_bitvector_width_some) (= t3_bitvector_width 0)))
(declare-const t3_integer_value Int)
(declare-const t3_integer_value_some Bool)
(assert (=> (distinct t3_disc 2) (not t3_integer_value_some)))
(assert (=> (not t3_integer_value_some) (= t3_integer_value 0)))
(assert (= t3_disc 1))
(assert t3_bitvector_width_some)
(assert (= t3_bitvector_width 32))
(declare-const t6_disc Int)
(assert (or (= t6_disc 1) (= t6_disc 2) (= t6_disc 3)))
(declare-const t6_bitvector_width Int)
(declare-const t6_bitvector_width_some Bool)
(assert (=> (distinct t6_disc 1) (not t6_bitvector_width_some)))
(assert (=> (not t6_bitvector_width_some) (= t6_bitvector_width 0)))
(declare-const t6_integer_value Int)
(declare-const t6_integer_value_some Bool)
(assert (=> (distinct t6_disc 2) (not t6_integer_value_some)))
(assert (=> (not t6_integer_value_some) (= t6_integer_value 0)))
(assert (= t3_disc t6_disc))
(assert (= t3_bitvector_width_some t6_bitvector_width_some))
(assert (= t3_bitvector_width t6_bitvector_width))
(declare-const t5_disc Int)
(assert (or (= t5_disc 1) (= t5_disc 2) (= t5_disc 3)))
(declare-const t5_bitvector_width Int)
(declare-const t5_bitvector_width_some Bool)
(assert (=> (distinct t5_disc 1) (not t5_bitvector_width_some)))
(assert (=> (not t5_bitvector_width_some) (= t5_bitvector_width 0)))
(declare-const t5_integer_value Int)
(declare-const t5_integer_value_some Bool)
(assert (=> (distinct t5_disc 2) (not t5_integer_value_some)))
(assert (=> (not t5_integer_value_some) (= t5_integer_value 0)))
(assert (= t1_disc t5_disc))
(assert (= t1_bitvector_width_some t5_bitvector_width_some))
(assert (= t1_bitvector_width t5_bitvector_width))
(declare-const t4_disc Int)
(assert (or (= t4_disc 1) (= t4_disc 2) (= t4_disc 3)))
(declare-const t4_bitvector_width Int)
(declare-const t4_bitvector_width_some Bool)
(assert (=> (distinct t4_disc 1) (not t4_bitvector_width_some)))
(assert (=> (not t4_bitvector_width_some) (= t4_bitvector_width 0)))
(declare-const t4_integer_value Int)
(declare-const t4_integer_value_some Bool)
(assert (=> (distinct t4_disc 2) (not t4_integer_value_some)))
(assert (=> (not t4_integer_value_some) (= t4_integer_value 0)))
(assert (= t3_disc t4_disc))
(assert (= t3_bitvector_width_some t4_bitvector_width_some))
(assert (= t3_bitvector_width t4_bitvector_width))
(declare-const t8_disc Int)
(assert (or (= t8_disc 1) (= t8_disc 2) (= t8_disc 3)))
(declare-const t8_bitvector_width Int)
(declare-const t8_bitvector_width_some Bool)
(assert (=> (distinct t8_disc 1) (not t8_bitvector_width_some)))
(assert (=> (not t8_bitvector_width_some) (= t8_bitvector_width 0)))
(declare-const t8_integer_value Int)
(declare-const t8_integer_value_some Bool)
(assert (=> (distinct t8_disc 2) (not t8_integer_value_some)))
(assert (=> (not t8_integer_value_some) (= t8_integer_value 0)))
(assert (= t2_disc t8_disc))
(assert (= t2_bitvector_width_some t8_bitvector_width_some))
(assert (= t2_bitvector_width t8_bitvector_width))
(assert (= t5_disc t6_disc))
(assert (= t5_bitvector_width_some t6_bitvector_width_some))
(assert (= t5_bitvector_width t6_bitvector_width))
(assert (= t6_disc 1))
(assert (= t8_disc 1))
(assert (= t5_disc 1))
(assert (=> (= t4_disc 2) (and t4_integer_value_some (= t4_integer_value 0))))
(assert (=> (= t1_disc 2) (and t1_integer_value_some (= t1_integer_value 0))))
(assert (=> (= t5_disc 2) (and t5_integer_value_some (= t5_integer_value 0))))
(check-sat)
(get-value (t4_disc))
(get-value (t4_bitvector_width_some))
(get-value (t4_bitvector_width))
(get-value (t3_disc))
(get-value (t3_bitvector_width_some))
(get-value (t3_bitvector_width))
(get-value (t5_disc))
(get-value (t5_bitvector_width_some))
(get-value (t5_bitvector_width))
(get-value (t6_disc))
(get-value (t6_bitvector_width_some))
(get-value (t6_bitvector_width))
(get-value (t2_disc))
(get-value (t2_bitvector_width_some))
(get-value (t2_bitvector_width))
(get-value (t8_disc))
(get-value (t8_bitvector_width_some))
(get-value (t8_bitvector_width))
(get-value (t1_disc))
(get-value (t1_bitvector_width_some))
(get-value (t1_bitvector_width))
(get-value (t7_disc))
